(set-logic QF_LRA)
(declare-fun fluent_ready_plt0_p1_t1@1 () Bool)
(declare-fun fluent_ready_plt0_p0_t2@1 () Bool)
(declare-fun fluent_robot_at_r0_p0@0 () Bool)
(declare-fun fluent_robot_at_r0_p1@0 () Bool)
(declare-fun fluent_ready_plt0_p1_t2@1 () Bool)
(declare-fun fluent_robot_free_r0@0 () Bool)
(declare-fun fluent_pallet_at_plt0_p0@1 () Bool)
(declare-fun fluent_pallet_at_plt0_p1@1 () Bool)
(declare-fun fluent_pallet_at_plt0_p0@0 () Bool)
(declare-fun fluent_pallet_at_plt0_p1@0 () Bool)
(declare-fun fluent_battery_level_r0@0 () Real)
(declare-fun fluent_robot_has_r0_plt0@1 () Bool)
(declare-fun fluent_treated_plt0_t0@1 () Bool)
(declare-fun fluent_treated_plt0_t1@1 () Bool)
(declare-fun act_make_treatment@1 () Bool)
(declare-fun fluent_treated_plt0_t2@1 () Bool)
(declare-fun fluent_position_free_p0@0 () Bool)
(declare-fun fluent_position_free_p1@0 () Bool)
(declare-fun fluent_position_free_p0@1 () Bool)
(declare-fun fluent_position_free_p1@1 () Bool)
(declare-fun fluent_robot_has_r0_plt0@0 () Bool)
(declare-fun fluent_ready_plt0_p0_t0@0 () Bool)
(declare-fun fluent_ready_plt0_p1_t0@0 () Bool)
(declare-fun fluent_ready_plt0_p0_t1@0 () Bool)
(declare-fun fluent_ready_plt0_p1_t1@0 () Bool)
(declare-fun fluent_ready_plt0_p0_t2@0 () Bool)
(declare-fun fluent_ready_plt0_p1_t2@0 () Bool)
(declare-fun act_load_at_depot@1 () Bool)
(declare-fun parameter_load_at_depot_pos@1 () Real)
(declare-fun parameter_load_at_depot_r@1 () Real)
(declare-fun parameter_load_at_depot_pallet@1 () Real)
(declare-fun fluent_treated_plt0_t0@0 () Bool)
(declare-fun fluent_treated_plt0_t1@0 () Bool)
(declare-fun fluent_treated_plt0_t2@0 () Bool)
(declare-fun act_unload_at_depot@1 () Bool)
(declare-fun parameter_unload_at_depot_pos@1 () Real)
(declare-fun act_move@1 () Bool)
(declare-fun parameter_move_topos@1 () Real)
(declare-fun parameter_unload_at_depot_r@1 () Real)
(declare-fun parameter_move_frompos@1 () Real)
(declare-fun parameter_unload_at_depot_pallet@1 () Real)
(declare-fun parameter_move_r@1 () Real)
(declare-fun dur_make_treatment@1 () Real)
(declare-fun fluent_robot_at_r0_p0@1 () Bool)
(declare-fun fluent_robot_at_r0_p1@1 () Bool)
(declare-fun t@1 () Real)
(declare-fun fluent_battery_level_r0@1 () Real)
(declare-fun parameter_make_treatment_t@1 () Real)
(declare-fun parameter_make_treatment_pallet@1 () Real)
(declare-fun act_load@1 () Bool)
(declare-fun parameter_load_t@1 () Real)
(declare-fun parameter_make_treatment_r@1 () Real)
(declare-fun parameter_load_pos@1 () Real)
(declare-fun parameter_make_treatment_pos@1 () Real)
(declare-fun parameter_load_pallet@1 () Real)
(declare-fun parameter_load_r@1 () Real)
(declare-fun fluent_robot_free_r0@1 () Bool)
(declare-fun fluent_ready_plt0_p0_t0@1 () Bool)
(declare-fun fluent_ready_plt0_p1_t0@1 () Bool)
(declare-fun fluent_ready_plt0_p0_t1@1 () Bool)
(assert (let ((.def_0 (= parameter_load_r@1 0.0))) (let ((.def_1 (= parameter_load_pallet@1 3.0))) (let ((.def_2 (= parameter_make_treatment_pos@1 2.0))) (let ((.def_3 (= parameter_make_treatment_pos@1 1.0))) (let ((.def_4 (or .def_3 .def_2))) (let ((.def_5 (= parameter_load_pos@1 2.0))) (let ((.def_6 (= parameter_load_pos@1 1.0))) (let ((.def_7 (or .def_6 .def_5))) (let ((.def_8 (= parameter_make_treatment_r@1 0.0))) (let ((.def_9 (= parameter_load_t@1 6.0))) (let ((.def_10 (= parameter_load_t@1 5.0))) (let ((.def_11 (= parameter_load_t@1 4.0))) (let ((.def_12 (or .def_11 .def_10 .def_9))) (let ((.def_13 (= parameter_make_treatment_pallet@1 3.0))) (let ((.def_14 (= parameter_make_treatment_t@1 6.0))) (let ((.def_15 (= parameter_make_treatment_t@1 5.0))) (let ((.def_16 (= parameter_make_treatment_t@1 4.0))) (let ((.def_17 (or .def_16 .def_15 .def_14))) (let ((.def_18 (<= fluent_battery_level_r0@1 100.0))) (let ((.def_19 (<= 0.0 fluent_battery_level_r0@1))) (let ((.def_20 (= parameter_move_r@1 0.0))) (let ((.def_21 (= parameter_unload_at_depot_pallet@1 3.0))) (let ((.def_22 (= parameter_move_frompos@1 2.0))) (let ((.def_23 (= parameter_move_frompos@1 1.0))) (let ((.def_24 (or .def_23 .def_22))) (let ((.def_25 (= parameter_unload_at_depot_r@1 0.0))) (let ((.def_26 (= parameter_move_topos@1 2.0))) (let ((.def_27 (= parameter_move_topos@1 1.0))) (let ((.def_28 (or .def_27 .def_26))) (let ((.def_29 (= parameter_unload_at_depot_pos@1 2.0))) (let ((.def_30 (= parameter_unload_at_depot_pos@1 1.0))) (let ((.def_31 (or .def_30 .def_29))) (let ((.def_32 (= parameter_load_at_depot_pallet@1 3.0))) (let ((.def_33 (= parameter_load_at_depot_r@1 0.0))) (let ((.def_34 (= parameter_load_at_depot_pos@1 2.0))) (let ((.def_35 (= parameter_load_at_depot_pos@1 1.0))) (let ((.def_36 (or .def_35 .def_34))) (let ((.def_37 (and act_move@1 true .def_20))) (let ((.def_38 (= fluent_battery_level_r0@0 fluent_battery_level_r0@1))) (let ((.def_39 (not .def_38))) (let ((.def_40 (=> .def_39 .def_37))) (let ((.def_41 (and act_make_treatment@1 true .def_13 .def_2))) (let ((.def_42 (and act_unload_at_depot@1 true .def_21 .def_29))) (let ((.def_43 (and .def_42 .def_41))) (let ((.def_44 (not .def_43))) (let ((.def_45 (and act_load_at_depot@1 true .def_32 .def_34))) (let ((.def_46 (and .def_45 .def_41))) (let ((.def_47 (not .def_46))) (let ((.def_48 (and .def_45 .def_42))) (let ((.def_49 (not .def_48))) (let ((.def_50 (and act_load@1 true .def_1 .def_5))) (let ((.def_51 (and .def_50 .def_41))) (let ((.def_52 (not .def_51))) (let ((.def_53 (and .def_50 .def_42))) (let ((.def_54 (not .def_53))) (let ((.def_55 (and .def_50 .def_45))) (let ((.def_56 (not .def_55))) (let ((.def_57 (or .def_50 .def_45 .def_42 .def_41))) (let ((.def_58 (= fluent_pallet_at_plt0_p1@0 fluent_pallet_at_plt0_p1@1))) (let ((.def_59 (not .def_58))) (let ((.def_60 (=> .def_59 .def_57))) (let ((.def_61 (and act_make_treatment@1 true .def_13 .def_3))) (let ((.def_62 (and act_unload_at_depot@1 true .def_21 .def_30))) (let ((.def_63 (and .def_62 .def_61))) (let ((.def_64 (not .def_63))) (let ((.def_65 (and act_load_at_depot@1 true .def_32 .def_35))) (let ((.def_66 (and .def_65 .def_61))) (let ((.def_67 (not .def_66))) (let ((.def_68 (and .def_65 .def_62))) (let ((.def_69 (not .def_68))) (let ((.def_70 (and act_load@1 true .def_1 .def_6))) (let ((.def_71 (and .def_70 .def_61))) (let ((.def_72 (not .def_71))) (let ((.def_73 (and .def_70 .def_62))) (let ((.def_74 (not .def_73))) (let ((.def_75 (and .def_70 .def_65))) (let ((.def_76 (not .def_75))) (let ((.def_77 (or .def_70 .def_65 .def_62 .def_61))) (let ((.def_78 (= fluent_pallet_at_plt0_p0@0 fluent_pallet_at_plt0_p0@1))) (let ((.def_79 (not .def_78))) (let ((.def_80 (=> .def_79 .def_77))) (let ((.def_81 (and act_load@1 true .def_1 .def_9))) (let ((.def_82 (= fluent_treated_plt0_t2@0 fluent_treated_plt0_t2@1))) (let ((.def_83 (not .def_82))) (let ((.def_84 (=> .def_83 .def_81))) (let ((.def_85 (and act_load@1 true .def_1 .def_10))) (let ((.def_86 (= fluent_treated_plt0_t1@0 fluent_treated_plt0_t1@1))) (let ((.def_87 (not .def_86))) (let ((.def_88 (=> .def_87 .def_85))) (let ((.def_89 (and act_load@1 true .def_1 .def_11))) (let ((.def_90 (= fluent_treated_plt0_t0@0 fluent_treated_plt0_t0@1))) (let ((.def_91 (not .def_90))) (let ((.def_92 (=> .def_91 .def_89))) (let ((.def_93 (and act_make_treatment@1 true .def_2))) (let ((.def_94 (and act_load@1 true .def_5))) (let ((.def_95 (and .def_94 .def_93))) (let ((.def_96 (not .def_95))) (let ((.def_97 (or .def_94 .def_93))) (let ((.def_98 (= fluent_position_free_p1@0 fluent_position_free_p1@1))) (let ((.def_99 (not .def_98))) (let ((.def_100 (=> .def_99 .def_97))) (let ((.def_101 (and act_make_treatment@1 true .def_3))) (let ((.def_102 (and act_load@1 true .def_6))) (let ((.def_103 (and .def_102 .def_101))) (let ((.def_104 (not .def_103))) (let ((.def_105 (or .def_102 .def_101))) (let ((.def_106 (= fluent_position_free_p0@0 fluent_position_free_p0@1))) (let ((.def_107 (not .def_106))) (let ((.def_108 (=> .def_107 .def_105))) (let ((.def_109 (+ t@1 10.0))) (let ((.def_110 (= t@1 .def_109))) (let ((.def_111 (and act_make_treatment@1 true .def_110 .def_13 .def_2 .def_14))) (let ((.def_112 (and act_load@1 true .def_1 .def_5 .def_9))) (let ((.def_113 (and .def_112 .def_111))) (let ((.def_114 (not .def_113))) (let ((.def_115 (or .def_112 .def_111))) (let ((.def_116 (= fluent_ready_plt0_p1_t2@0 fluent_ready_plt0_p1_t2@1))) (let ((.def_117 (not .def_116))) (let ((.def_118 (=> .def_117 .def_115))) (let ((.def_119 (and act_make_treatment@1 true .def_110 .def_13 .def_3 .def_14))) (let ((.def_120 (and act_load@1 true .def_1 .def_6 .def_9))) (let ((.def_121 (and .def_120 .def_119))) (let ((.def_122 (not .def_121))) (let ((.def_123 (or .def_120 .def_119))) (let ((.def_124 (= fluent_ready_plt0_p0_t2@0 fluent_ready_plt0_p0_t2@1))) (let ((.def_125 (not .def_124))) (let ((.def_126 (=> .def_125 .def_123))) (let ((.def_127 (and act_make_treatment@1 true .def_110 .def_13 .def_2 .def_15))) (let ((.def_128 (and act_load@1 true .def_1 .def_5 .def_10))) (let ((.def_129 (and .def_128 .def_127))) (let ((.def_130 (not .def_129))) (let ((.def_131 (or .def_128 .def_127))) (let ((.def_132 (= fluent_ready_plt0_p1_t1@0 fluent_ready_plt0_p1_t1@1))) (let ((.def_133 (not .def_132))) (let ((.def_134 (=> .def_133 .def_131))) (let ((.def_135 (and act_make_treatment@1 true .def_110 .def_13 .def_3 .def_15))) (let ((.def_136 (and act_load@1 true .def_1 .def_6 .def_10))) (let ((.def_137 (and .def_136 .def_135))) (let ((.def_138 (not .def_137))) (let ((.def_139 (or .def_136 .def_135))) (let ((.def_140 (= fluent_ready_plt0_p0_t1@0 fluent_ready_plt0_p0_t1@1))) (let ((.def_141 (not .def_140))) (let ((.def_142 (=> .def_141 .def_139))) (let ((.def_143 (and act_make_treatment@1 true .def_110 .def_13 .def_2 .def_16))) (let ((.def_144 (and act_load@1 true .def_1 .def_5 .def_11))) (let ((.def_145 (and .def_144 .def_143))) (let ((.def_146 (not .def_145))) (let ((.def_147 (or .def_144 .def_143))) (let ((.def_148 (= fluent_ready_plt0_p1_t0@0 fluent_ready_plt0_p1_t0@1))) (let ((.def_149 (not .def_148))) (let ((.def_150 (=> .def_149 .def_147))) (let ((.def_151 (and act_make_treatment@1 true .def_110 .def_13 .def_3 .def_16))) (let ((.def_152 (and act_load@1 true .def_1 .def_6 .def_11))) (let ((.def_153 (and .def_152 .def_151))) (let ((.def_154 (not .def_153))) (let ((.def_155 (or .def_152 .def_151))) (let ((.def_156 (= fluent_ready_plt0_p0_t0@0 fluent_ready_plt0_p0_t0@1))) (let ((.def_157 (not .def_156))) (let ((.def_158 (=> .def_157 .def_155))) (let ((.def_159 (and act_make_treatment@1 true .def_8 .def_13))) (let ((.def_160 (and act_unload_at_depot@1 true .def_25 .def_21))) (let ((.def_161 (and .def_160 .def_159))) (let ((.def_162 (not .def_161))) (let ((.def_163 (and act_load_at_depot@1 true .def_33 .def_32))) (let ((.def_164 (and .def_163 .def_159))) (let ((.def_165 (not .def_164))) (let ((.def_166 (and .def_163 .def_160))) (let ((.def_167 (not .def_166))) (let ((.def_168 (and act_load@1 true .def_0 .def_1))) (let ((.def_169 (and .def_168 .def_159))) (let ((.def_170 (not .def_169))) (let ((.def_171 (and .def_168 .def_160))) (let ((.def_172 (not .def_171))) (let ((.def_173 (and .def_168 .def_163))) (let ((.def_174 (not .def_173))) (let ((.def_175 (or .def_168 .def_163 .def_160 .def_159))) (let ((.def_176 (= fluent_robot_has_r0_plt0@0 fluent_robot_has_r0_plt0@1))) (let ((.def_177 (not .def_176))) (let ((.def_178 (=> .def_177 .def_175))) (let ((.def_179 (and act_make_treatment@1 true .def_8))) (let ((.def_180 (and act_unload_at_depot@1 true .def_25))) (let ((.def_181 (and .def_180 .def_179))) (let ((.def_182 (not .def_181))) (let ((.def_183 (and act_load_at_depot@1 true .def_33))) (let ((.def_184 (and .def_183 .def_179))) (let ((.def_185 (not .def_184))) (let ((.def_186 (and .def_183 .def_180))) (let ((.def_187 (not .def_186))) (let ((.def_188 (and act_load@1 true .def_0))) (let ((.def_189 (and .def_188 .def_179))) (let ((.def_190 (not .def_189))) (let ((.def_191 (and .def_188 .def_180))) (let ((.def_192 (not .def_191))) (let ((.def_193 (and .def_188 .def_183))) (let ((.def_194 (not .def_193))) (let ((.def_195 (or .def_188 .def_183 .def_180 .def_179))) (let ((.def_196 (= fluent_robot_free_r0@0 fluent_robot_free_r0@1))) (let ((.def_197 (not .def_196))) (let ((.def_198 (=> .def_197 .def_195))) (let ((.def_199 (and act_move@1 true .def_20 .def_22))) (let ((.def_200 (and act_move@1 true .def_20 .def_26))) (let ((.def_201 (and .def_200 .def_199))) (let ((.def_202 (not .def_201))) (let ((.def_203 (or .def_200 .def_199))) (let ((.def_204 (= fluent_robot_at_r0_p1@0 fluent_robot_at_r0_p1@1))) (let ((.def_205 (not .def_204))) (let ((.def_206 (=> .def_205 .def_203))) (let ((.def_207 (and act_move@1 true .def_20 .def_23))) (let ((.def_208 (and act_move@1 true .def_20 .def_27))) (let ((.def_209 (and .def_208 .def_207))) (let ((.def_210 (not .def_209))) (let ((.def_211 (or .def_208 .def_207))) (let ((.def_212 (= fluent_robot_at_r0_p0@0 fluent_robot_at_r0_p0@1))) (let ((.def_213 (not .def_212))) (let ((.def_214 (=> .def_213 .def_211))) (let ((.def_215 (and .def_214 .def_210 .def_206 .def_202 .def_198 .def_194 .def_192 .def_190 .def_187 .def_185 .def_182 .def_178 .def_174 .def_172 .def_170 .def_167 .def_165 .def_162 .def_158 .def_154 .def_150 .def_146 .def_142 .def_138 .def_134 .def_130 .def_126 .def_122 .def_118 .def_114 .def_108 .def_104 .def_100 .def_96 .def_92 .def_88 .def_84 .def_80 .def_76 .def_74 .def_72 .def_69 .def_67 .def_64 .def_60 .def_56 .def_54 .def_52 .def_49 .def_47 .def_44 .def_40))) (let ((.def_216 (= t@1 t@1))) (let ((.def_217 (and act_load@1 act_load_at_depot@1 .def_216))) (let ((.def_218 (not .def_217))) (let ((.def_219 (and act_unload_at_depot@1 act_load_at_depot@1 .def_216))) (let ((.def_220 (not .def_219))) (let ((.def_221 (and act_make_treatment@1 act_load_at_depot@1 .def_216))) (let ((.def_222 (not .def_221))) (let ((.def_223 (and act_move@1 act_unload_at_depot@1 .def_216))) (let ((.def_224 (not .def_223))) (let ((.def_225 (and act_make_treatment@1 act_move@1 .def_216))) (let ((.def_226 (not .def_225))) (let ((.def_227 (and act_load@1 act_unload_at_depot@1 .def_216))) (let ((.def_228 (not .def_227))) (let ((.def_229 (and act_make_treatment@1 act_load@1 .def_216))) (let ((.def_230 (not .def_229))) (let ((.def_231 (= .def_109 t@1))) (let ((.def_232 (and act_make_treatment@1 act_load@1 .def_231))) (let ((.def_233 (not .def_232))) (let ((.def_234 (and act_make_treatment@1 act_unload_at_depot@1 .def_216))) (let ((.def_235 (not .def_234))) (let ((.def_236 (and act_move@1 act_load_at_depot@1 .def_216))) (let ((.def_237 (not .def_236))) (let ((.def_238 (+ t@1 dur_make_treatment@1))) (let ((.def_239 (= t@1 .def_238))) (let ((.def_240 (and act_load@1 act_make_treatment@1 .def_239))) (let ((.def_241 (not .def_240))) (let ((.def_242 (and act_load@1 act_move@1 .def_216))) (let ((.def_243 (not .def_242))) (let ((.def_244 (and .def_243 .def_241 .def_237 .def_235 .def_233 .def_230 .def_228 .def_226 .def_224 .def_222 .def_220 .def_218))) (let ((.def_245 (<= 0.0 t@1))) (let ((.def_246 (and .def_13 .def_2 .def_16))) (let ((.def_247 (ite .def_246 fluent_ready_plt0_p1_t0@1 fluent_ready_plt0_p0_t0@1))) (let ((.def_248 (and .def_13 .def_3 .def_15))) (let ((.def_249 (ite .def_248 fluent_ready_plt0_p0_t1@1 .def_247))) (let ((.def_250 (and .def_13 .def_2 .def_15))) (let ((.def_251 (ite .def_250 fluent_ready_plt0_p1_t1@1 .def_249))) (let ((.def_252 (and .def_13 .def_3 .def_14))) (let ((.def_253 (ite .def_252 fluent_ready_plt0_p0_t2@1 .def_251))) (let ((.def_254 (and .def_13 .def_2 .def_14))) (let ((.def_255 (ite .def_254 fluent_ready_plt0_p1_t2@1 .def_253))) (let ((.def_256 (= .def_255 true))) (let ((.def_257 (=> true .def_256))) (let ((.def_258 (and .def_110 .def_257))) (let ((.def_259 (= fluent_robot_free_r0@1 true))) (let ((.def_260 (=> true .def_259))) (let ((.def_261 (and .def_13 .def_2))) (let ((.def_262 (ite .def_261 fluent_pallet_at_plt0_p1@1 fluent_pallet_at_plt0_p0@1))) (let ((.def_263 (= .def_262 true))) (let ((.def_264 (=> true .def_263))) (let ((.def_265 (= fluent_robot_has_r0_plt0@1 false))) (let ((.def_266 (=> true .def_265))) (let ((.def_267 (ite .def_2 fluent_position_free_p1@1 fluent_position_free_p0@1))) (let ((.def_268 (= .def_267 false))) (let ((.def_269 (=> true .def_268))) (let ((.def_270 (and .def_216 .def_269 .def_266 .def_264 .def_260))) (let ((.def_271 (ite .def_2 fluent_position_free_p1@0 fluent_position_free_p0@0))) (let ((.def_272 (and .def_13 .def_15))) (let ((.def_273 (ite .def_272 fluent_treated_plt0_t1@0 fluent_treated_plt0_t0@0))) (let ((.def_274 (and .def_13 .def_14))) (let ((.def_275 (ite .def_274 fluent_treated_plt0_t2@0 .def_273))) (let ((.def_276 (and .def_275 .def_271))) (let ((.def_277 (<= .def_238 t@1))) (let ((.def_278 (< (- 1.0) .def_238))) (let ((.def_279 (and .def_278 .def_277))) (let ((.def_280 (=> .def_279 .def_276))) (let ((.def_281 (not .def_275))) (let ((.def_282 (and .def_8 .def_2))) (let ((.def_283 (ite .def_282 fluent_robot_at_r0_p1@0 fluent_robot_at_r0_p0@0))) (let ((.def_284 (and .def_2 .def_16))) (let ((.def_285 (ite .def_284 false true))) (let ((.def_286 (and .def_3 .def_15))) (let ((.def_287 (ite .def_286 true .def_285))) (let ((.def_288 (and .def_2 .def_15))) (let ((.def_289 (ite .def_288 false .def_287))) (let ((.def_290 (and .def_3 .def_14))) (let ((.def_291 (ite .def_290 true .def_289))) (let ((.def_292 (and .def_2 .def_14))) (let ((.def_293 (ite .def_292 false .def_291))) (let ((.def_294 (and .def_293 .def_271 .def_283 fluent_robot_has_r0_plt0@0 .def_281))) (let ((.def_295 (<= t@1 t@1))) (let ((.def_296 (< (- 1.0) t@1))) (let ((.def_297 (and .def_296 .def_295))) (let ((.def_298 (=> .def_297 .def_294))) (let ((.def_299 (<= dur_make_treatment@1 20.0))) (let ((.def_300 (<= 20.0 dur_make_treatment@1))) (let ((.def_301 (and .def_300 .def_299))) (let ((.def_302 (and .def_301 .def_277 .def_298 .def_280 .def_270 .def_258))) (let ((.def_303 (=> act_make_treatment@1 .def_302))) (let ((.def_304 (and .def_21 .def_29))) (let ((.def_305 (ite .def_304 fluent_pallet_at_plt0_p1@1 fluent_pallet_at_plt0_p0@1))) (let ((.def_306 (= .def_305 true))) (let ((.def_307 (=> true .def_306))) (let ((.def_308 (and .def_25 .def_29))) (let ((.def_309 (ite .def_308 fluent_robot_at_r0_p1@0 fluent_robot_at_r0_p0@0))) (let ((.def_310 (ite .def_29 true false))) (let ((.def_311 (and .def_310 .def_309 fluent_robot_has_r0_plt0@0 .def_307 .def_260 .def_266))) (let ((.def_312 (=> act_unload_at_depot@1 .def_311))) (let ((.def_313 (and .def_32 .def_34))) (let ((.def_314 (ite .def_313 fluent_pallet_at_plt0_p1@1 fluent_pallet_at_plt0_p0@1))) (let ((.def_315 (= .def_314 false))) (let ((.def_316 (=> true .def_315))) (let ((.def_317 (= fluent_robot_has_r0_plt0@1 true))) (let ((.def_318 (=> true .def_317))) (let ((.def_319 (= fluent_robot_free_r0@1 false))) (let ((.def_320 (=> true .def_319))) (let ((.def_321 (ite .def_313 fluent_pallet_at_plt0_p1@0 fluent_pallet_at_plt0_p0@0))) (let ((.def_322 (and .def_33 .def_34))) (let ((.def_323 (ite .def_322 fluent_robot_at_r0_p1@0 fluent_robot_at_r0_p0@0))) (let ((.def_324 (ite .def_34 true false))) (let ((.def_325 (and .def_324 .def_323 fluent_robot_free_r0@0 .def_321 .def_320 .def_318 .def_316))) (let ((.def_326 (=> act_load_at_depot@1 .def_325))) (let ((.def_327 (ite .def_5 fluent_position_free_p1@1 fluent_position_free_p0@1))) (let ((.def_328 (= .def_327 true))) (let ((.def_329 (=> true .def_328))) (let ((.def_330 (and .def_1 .def_10))) (let ((.def_331 (ite .def_330 fluent_treated_plt0_t1@1 fluent_treated_plt0_t0@1))) (let ((.def_332 (and .def_1 .def_9))) (let ((.def_333 (ite .def_332 fluent_treated_plt0_t2@1 .def_331))) (let ((.def_334 (= .def_333 true))) (let ((.def_335 (=> true .def_334))) (let ((.def_336 (and .def_1 .def_5))) (let ((.def_337 (ite .def_336 fluent_pallet_at_plt0_p1@1 fluent_pallet_at_plt0_p0@1))) (let ((.def_338 (= .def_337 false))) (let ((.def_339 (=> true .def_338))) (let ((.def_340 (and .def_1 .def_5 .def_11))) (let ((.def_341 (ite .def_340 fluent_ready_plt0_p1_t0@1 fluent_ready_plt0_p0_t0@1))) (let ((.def_342 (and .def_1 .def_6 .def_10))) (let ((.def_343 (ite .def_342 fluent_ready_plt0_p0_t1@1 .def_341))) (let ((.def_344 (and .def_1 .def_5 .def_10))) (let ((.def_345 (ite .def_344 fluent_ready_plt0_p1_t1@1 .def_343))) (let ((.def_346 (and .def_1 .def_6 .def_9))) (let ((.def_347 (ite .def_346 fluent_ready_plt0_p0_t2@1 .def_345))) (let ((.def_348 (and .def_1 .def_5 .def_9))) (let ((.def_349 (ite .def_348 fluent_ready_plt0_p1_t2@1 .def_347))) (let ((.def_350 (= .def_349 false))) (let ((.def_351 (=> true .def_350))) (let ((.def_352 (ite .def_336 fluent_pallet_at_plt0_p1@0 fluent_pallet_at_plt0_p0@0))) (let ((.def_353 (and .def_0 .def_5))) (let ((.def_354 (ite .def_353 fluent_robot_at_r0_p1@0 fluent_robot_at_r0_p0@0))) (let ((.def_355 (ite .def_340 fluent_ready_plt0_p1_t0@0 fluent_ready_plt0_p0_t0@0))) (let ((.def_356 (ite .def_342 fluent_ready_plt0_p0_t1@0 .def_355))) (let ((.def_357 (ite .def_344 fluent_ready_plt0_p1_t1@0 .def_356))) (let ((.def_358 (ite .def_346 fluent_ready_plt0_p0_t2@0 .def_357))) (let ((.def_359 (ite .def_348 fluent_ready_plt0_p1_t2@0 .def_358))) (let ((.def_360 (and .def_359 .def_354 fluent_robot_free_r0@0 .def_352 .def_320 .def_351 .def_339 .def_318 .def_335 .def_329))) (let ((.def_361 (=> act_load@1 .def_360))) (let ((.def_362 (and .def_22 .def_27))) (let ((.def_363 (ite .def_362 1.0 0.0))) (let ((.def_364 (and .def_23 .def_26))) (let ((.def_365 (ite .def_364 1.0 .def_363))) (let ((.def_366 (and .def_22 .def_26))) (let ((.def_367 (ite .def_366 0.0 .def_365))) (let ((.def_368 (- fluent_battery_level_r0@0 .def_367))) (let ((.def_369 (= fluent_battery_level_r0@1 .def_368))) (let ((.def_370 (=> true .def_369))) (let ((.def_371 (and .def_20 .def_22))) (let ((.def_372 (ite .def_371 fluent_robot_at_r0_p1@1 fluent_robot_at_r0_p0@1))) (let ((.def_373 (= .def_372 false))) (let ((.def_374 (=> true .def_373))) (let ((.def_375 (and .def_20 .def_26))) (let ((.def_376 (ite .def_375 fluent_robot_at_r0_p1@1 fluent_robot_at_r0_p0@1))) (let ((.def_377 (= .def_376 true))) (let ((.def_378 (=> true .def_377))) (let ((.def_379 (<= .def_367 fluent_battery_level_r0@0))) (let ((.def_380 (ite .def_371 fluent_robot_at_r0_p1@0 fluent_robot_at_r0_p0@0))) (let ((.def_381 (= parameter_move_frompos@1 parameter_move_topos@1))) (let ((.def_382 (not .def_381))) (let ((.def_383 (and .def_382 .def_380 .def_379 .def_378 .def_374 .def_370))) (let ((.def_384 (=> act_move@1 .def_383))) (let ((.def_385 (<= 0.0 fluent_battery_level_r0@0))) (let ((.def_386 (<= fluent_battery_level_r0@0 100.0))) (let ((.def_387 (= false false))) (let ((.def_388 (= fluent_pallet_at_plt0_p0@0 false))) (let ((.def_389 (= fluent_treated_plt0_t2@0 false))) (let ((.def_390 (= fluent_treated_plt0_t1@0 false))) (let ((.def_391 (= fluent_treated_plt0_t0@0 false))) (let ((.def_392 (= fluent_ready_plt0_p1_t2@0 false))) (let ((.def_393 (= fluent_ready_plt0_p0_t2@0 false))) (let ((.def_394 (= fluent_ready_plt0_p1_t1@0 false))) (let ((.def_395 (= fluent_ready_plt0_p0_t1@0 false))) (let ((.def_396 (= fluent_ready_plt0_p1_t0@0 false))) (let ((.def_397 (= fluent_ready_plt0_p0_t0@0 false))) (let ((.def_398 (= fluent_robot_has_r0_plt0@0 false))) (let ((.def_399 (= fluent_robot_at_r0_p0@0 false))) (let ((.def_400 (= true true))) (let ((.def_401 (= fluent_position_free_p1@0 true))) (let ((.def_402 (= fluent_position_free_p0@0 true))) (let ((.def_403 (= 0.0 0.0))) (let ((.def_404 (= 1.0 1.0))) (let ((.def_405 (= fluent_battery_level_r0@0 4.0))) (let ((.def_406 (= fluent_pallet_at_plt0_p1@0 true))) (let ((.def_407 (= fluent_robot_free_r0@0 true))) (let ((.def_408 (= fluent_robot_at_r0_p1@0 true))) (let ((.def_409 (and .def_408 .def_407 .def_406 .def_405 .def_403 .def_404 .def_404 .def_403 .def_400 .def_402 .def_401 .def_400 .def_400 .def_400 .def_399 .def_398 .def_397 .def_396 .def_395 .def_394 .def_393 .def_392 .def_391 .def_390 .def_389 .def_388 .def_387 .def_387 .def_387 .def_387 .def_386 .def_385))) (let ((.def_410 (and .def_409 .def_384 .def_361 .def_326 .def_312 .def_303 .def_245 .def_244 true .def_215 .def_36 .def_33 .def_32 .def_31 .def_28 .def_25 .def_24 .def_21 .def_20 .def_19 .def_18 .def_17 .def_13 .def_12 .def_8 .def_7 .def_4 .def_1 .def_0 true))) .def_410))))))))))))))))))))))))))))))))))))))))))))))))))))))))))))))))))))))))))))))))))))))))))))))))))))))))))))))))))))))))))))))))))))))))))))))))))))))))))))))))))))))))))))))))))))))))))))))))))))))))))))))))))))))))))))))))))))))))))))))))))))))))))))))))))))))))))))))))))))))))))))))))))))))))))))))))))))))))))))))))))))))))))))))))))))))))))))))))))))))))))))))))))))))))))))))))))))))))))))))))))))))))))))
(check-sat)

--------------------------------------------------------------------------------
